exploration_planner/utils/lkh_tsp_solver/resource/single.tsp
NAME : single
TYPE : ATSP
DIMENSION : 6
EDGE_WEIGHT_TYPE : EXPLICIT
EDGE_WEIGHT_FORMAT : FULL_MATRIX
EDGE_WEIGHT_SECTION
0 179 246 239 116 222 
0 0 246 240 151 257 
0 246 0 67 201 118 
0 240 67 0 208 93 
0 151 201 208 0 190 
0 257 118 93 190 0 
EOF