exploration_planner/utils/lkh_tsp_solver/resource/single.txt
NAME : single.673.tour
COMMENT : Length = 673
COMMENT : Found by LKH [Keld Helsgaun] Tue May 16 13:24:07 2023
TYPE : TOUR
DIMENSION : 6
TOUR_SECTION
1
5
2
3
4
6
-1
EOF
